r = [
0,29,112,15,132,67,138,9,35,62,12,0
];
p = [
0,20,9,20,7,10,28,14,18,23,11,0
];
e = [
0,19,1,9,16,5,19,5,5,17,2,0
];
d = [
0,53,130,35,139,118,166,32,86,104,59,180
];
d_bar = [
0,63,135,45,143,123,180,39,95,116,65,180
];
w = [
0,1.9,0.2,0.9,4,1,1.357142857,0.714285714,0.555555556,1.416666667,0.333333333,0
];
